%%
% Autogenerated by /opt/prj/battleships-ai/src/server/solver.py, instance 0 6x6 [5] #3 <s3g1h>
% Source: https://www.puzzle-battleships.com/?size=0
%%

size = 6;
hints_num = 2;
hints = [| 4, 2 | 5, 4 |];
ships_num = 6;

constr_rows = [4, 1, 1, 2, 2, 0];
constr_cols = [2, 2, 1, 3, 1, 1];

given_ships = [|
<>, <>, <>, <>, 1, |
<>, <>, <>, <>, 1, |
<>, <>, <>, <>, 1, |
<>, <>, <>, <>, 2, |
<>, <>, <>, <>, 2, |
<>, <>, <>, <>, 3  |];

